NAME : single
TYPE : ATSP
DIMENSION : 5
EDGE_WEIGHT_TYPE : EXPLICIT
EDGE_WEIGHT_FORMAT : FULL_MATRIX
EDGE_WEIGHT_SECTION
0 92 711 606 548 
0 0 400 232 275 
0 400 0 235 184 
0 232 235 0 278 
0 275 184 278 0 
EOF